86
6
30
99
75
92
47
10
77
19
35
70
72
56
49
69
7
18
52
53
0
96
95
59
40
11
5
37
42
81
79
55
16
91
71
4
17
74
87
31
88
25
23
67
89
46
22
1
76
60
58
20
38
24
61
13
28
90
94
54
97
66
93
84
29
32
12
44
15
21
48
8
57
51
43
68
65
2
82
63
3
34
41
64
80
33
78
14
98
26
50
27
62
9
83
45
39
73
36
85
